Minimize
  obj: 1 x0 + 1 x1
Subject To
 C0_1 : 1 x0 + 4236247/8388608 x1 >= -2116655921/2147483648
 C0_2 : 1 x0 + 4236247/8388608 x1 <= -2116655919/2147483648
 C1_1 : 1 x0 + 8473729/16777216 x1 >= -8876004357439485/9007199254740992
 C1_2 : 1 x0 + 8473729/16777216 x1 <= -8876004349050883/9007199254740992
 C2_1 : 1 x0 + 2118741/4194304 x1 >= -2115752841/2147483648
 C2_2 : 1 x0 + 2118741/4194304 x1 <= -2115752839/2147483648
 C3_1 : 1 x0 + 8476199/16777216 x1 >= -8872217119031293/9007199254740992
 C3_2 : 1 x0 + 8476199/16777216 x1 <= -8872217110642691/9007199254740992
 C4_1 : 1 x0 + 4238717/8388608 x1 >= -8870323910868989/9007199254740992
 C4_2 : 1 x0 + 4238717/8388608 x1 <= -8870323902480387/9007199254740992
 C5_1 : 1 x0 + 8478669/16777216 x1 >= -8868430971142141/9007199254740992
 C5_2 : 1 x0 + 8478669/16777216 x1 <= -8868430962753539/9007199254740992
 C6_1 : 1 x0 + 264997/524288 x1 >= -8866538316627965/9007199254740992
 C6_2 : 1 x0 + 264997/524288 x1 <= -8866538308239363/9007199254740992
 C7_1 : 1 x0 + 8481139/16777216 x1 >= -1056748145/1073741824
 C7_2 : 1 x0 + 8481139/16777216 x1 <= -1056748143/1073741824
 C8_1 : 1 x0 + 4241187/8388608 x1 >= -8862753825488893/9007199254740992
 C8_2 : 1 x0 + 4241187/8388608 x1 <= -8862753808711683/9007199254740992
 C9_1 : 1 x0 + 8483609/16777216 x1 >= -1056297065/1073741824
 C9_2 : 1 x0 + 8483609/16777216 x1 <= -1056297063/1073741824
 C10_1 : 1 x0 + 2121211/4194304 x1 >= -1056071573/1073741824
 C10_2 : 1 x0 + 2121211/4194304 x1 <= -1056071571/1073741824
 C11_1 : 1 x0 + 8486079/16777216 x1 >= -8857079167057917/9007199254740992
 C11_2 : 1 x0 + 8486079/16777216 x1 <= -8857079150280707/9007199254740992
 C12_1 : 1 x0 + 4243657/8388608 x1 >= -1055620689/1073741824
 C12_2 : 1 x0 + 4243657/8388608 x1 <= -1055620687/1073741824
 C13_1 : 1 x0 + 8488549/16777216 x1 >= -1055395297/1073741824
 C13_2 : 1 x0 + 8488549/16777216 x1 <= -1055395295/1073741824
 C14_1 : 1 x0 + 1061223/2097152 x1 >= -1055169937/1073741824
 C14_2 : 1 x0 + 1061223/2097152 x1 <= -1055169935/1073741824
 C15_1 : 1 x0 + 8491019/16777216 x1 >= -8849516803391485/9007199254740992
 C15_2 : 1 x0 + 8491019/16777216 x1 <= -8849516786614275/9007199254740992
 C16_1 : 1 x0 + 4246127/8388608 x1 >= -1054719317/1073741824
 C16_2 : 1 x0 + 4246127/8388608 x1 <= -1054719315/1073741824
 C17_1 : 1 x0 + 8493489/16777216 x1 >= -8845737265725437/9007199254740992
 C17_2 : 1 x0 + 8493489/16777216 x1 <= -8845737248948227/9007199254740992
 C18_1 : 1 x0 + 2123681/4194304 x1 >= -8843847916322813/9007199254740992
 C18_2 : 1 x0 + 2123681/4194304 x1 <= -8843847899545603/9007199254740992
 C19_1 : 1 x0 + 8495959/16777216 x1 >= -8841958835355645/9007199254740992
 C19_2 : 1 x0 + 8495959/16777216 x1 <= -8841958818578435/9007199254740992
 C20_1 : 1 x0 + 4248597/8388608 x1 >= -8840070022823933/9007199254740992
 C20_2 : 1 x0 + 4248597/8388608 x1 <= -8840070006046723/9007199254740992
 C21_1 : 1 x0 + 8498429/16777216 x1 >= -1053593337/1073741824
 C21_2 : 1 x0 + 8498429/16777216 x1 <= -1053593335/1073741824
 C22_1 : 1 x0 + 531229/1048576 x1 >= -8836293236621309/9007199254740992
 C22_2 : 1 x0 + 531229/1048576 x1 <= -8836293219844099/9007199254740992
 C23_1 : 1 x0 + 8500899/16777216 x1 >= -1053143173/1073741824
 C23_2 : 1 x0 + 8500899/16777216 x1 <= -1053143171/1073741824
 C24_1 : 1 x0 + 4251067/8388608 x1 >= -1052918141/1073741824
 C24_2 : 1 x0 + 4251067/8388608 x1 <= -1052918139/1073741824
 C25_1 : 1 x0 + 8503369/16777216 x1 >= -1052693141/1073741824
 C25_2 : 1 x0 + 8503369/16777216 x1 <= -1052693139/1073741824
 C26_1 : 1 x0 + 2126151/4194304 x1 >= -8828742952550397/9007199254740992
 C26_2 : 1 x0 + 2126151/4194304 x1 <= -8828742935773187/9007199254740992
 C27_1 : 1 x0 + 8505839/16777216 x1 >= -1052243241/1073741824
 C27_2 : 1 x0 + 8505839/16777216 x1 <= -1052243239/1073741824
 C28_1 : 1 x0 + 4253537/8388608 x1 >= -8824969454682109/9007199254740992
 C28_2 : 1 x0 + 4253537/8388608 x1 <= -8824969437904899/9007199254740992
 C29_1 : 1 x0 + 8508309/16777216 x1 >= -1051793469/1073741824
 C29_2 : 1 x0 + 8508309/16777216 x1 <= -1051793467/1073741824
 C30_1 : 1 x0 + 1063693/2097152 x1 >= -1051568633/1073741824
 C30_2 : 1 x0 + 1063693/2097152 x1 <= -1051568631/1073741824
 C31_1 : 1 x0 + 8510779/16777216 x1 >= -1051343829/1073741824
 C31_2 : 1 x0 + 8510779/16777216 x1 <= -1051343827/1073741824
 C32_1 : 1 x0 + 4256007/8388608 x1 >= -8817425747279869/9007199254740992
 C32_2 : 1 x0 + 4256007/8388608 x1 <= -8817425730502659/9007199254740992
 C33_1 : 1 x0 + 8513249/16777216 x1 >= -1050894321/1073741824
 C33_2 : 1 x0 + 8513249/16777216 x1 <= -1050894319/1073741824
 C34_1 : 1 x0 + 2128621/4194304 x1 >= -8813655537745917/9007199254740992
 C34_2 : 1 x0 + 2128621/4194304 x1 <= -8813655520968707/9007199254740992
 C35_1 : 1 x0 + 8515719/16777216 x1 >= -1050444941/1073741824
 C35_2 : 1 x0 + 8515719/16777216 x1 <= -1050444939/1073741824
 C36_1 : 1 x0 + 4258477/8388608 x1 >= -1050220301/1073741824
 C36_2 : 1 x0 + 4258477/8388608 x1 <= -1050220299/1073741824
 C37_1 : 1 x0 + 8518189/16777216 x1 >= -8808002253488125/9007199254740992
 C37_2 : 1 x0 + 8518189/16777216 x1 <= -8808002236710915/9007199254740992
 C38_1 : 1 x0 + 33279/65536 x1 >= -1049771117/1073741824
 C38_2 : 1 x0 + 33279/65536 x1 <= -1049771115/1073741824
 C39_1 : 1 x0 + 8520659/16777216 x1 >= -1049546573/1073741824
 C39_2 : 1 x0 + 8520659/16777216 x1 <= -1049546571/1073741824
 C40_1 : 1 x0 + 4260947/8388608 x1 >= -8802351452258301/9007199254740992
 C40_2 : 1 x0 + 4260947/8388608 x1 <= -8802351435481091/9007199254740992
 C41_1 : 1 x0 + 8523129/16777216 x1 >= -1049097585/1073741824
 C41_2 : 1 x0 + 8523129/16777216 x1 <= -1049097583/1073741824
 C42_1 : 1 x0 + 2131091/4194304 x1 >= -8798585604800509/9007199254740992
 C42_2 : 1 x0 + 2131091/4194304 x1 <= -8798585588023299/9007199254740992
 C43_1 : 1 x0 + 8525599/16777216 x1 >= -8796703100502013/9007199254740992
 C43_2 : 1 x0 + 8525599/16777216 x1 <= -8796703083724803/9007199254740992
 C44_1 : 1 x0 + 4263417/8388608 x1 >= -1048424345/1073741824
 C44_2 : 1 x0 + 4263417/8388608 x1 <= -1048424343/1073741824
 C45_1 : 1 x0 + 8528069/16777216 x1 >= -1048199997/1073741824
 C45_2 : 1 x0 + 8528069/16777216 x1 <= -1048199995/1073741824
 C46_1 : 1 x0 + 1066163/2097152 x1 >= -8791057198219261/9007199254740992
 C46_2 : 1 x0 + 1066163/2097152 x1 <= -8791057181442051/9007199254740992
 C47_1 : 1 x0 + 8530539/16777216 x1 >= -8789175767662589/9007199254740992
 C47_2 : 1 x0 + 8530539/16777216 x1 <= -8789175750885379/9007199254740992
 C48_1 : 1 x0 + 4265887/8388608 x1 >= -1047527149/1073741824
 C48_2 : 1 x0 + 4265887/8388608 x1 <= -1047527147/1073741824
 C49_1 : 1 x0 + 8533009/16777216 x1 >= -8785413745410045/9007199254740992
 C49_2 : 1 x0 + 8533009/16777216 x1 <= -8785413728632835/9007199254740992
 C50_1 : 1 x0 + 2133561/4194304 x1 >= -1047078745/1073741824
 C50_2 : 1 x0 + 2133561/4194304 x1 <= -1047078743/1073741824
 C51_1 : 1 x0 + 8535479/16777216 x1 >= -1046854593/1073741824
 C51_2 : 1 x0 + 8535479/16777216 x1 <= -1046854591/1073741824
 C52_1 : 1 x0 + 4268357/8388608 x1 >= -8779772742074365/9007199254740992
 C52_2 : 1 x0 + 4268357/8388608 x1 <= -8779772725297155/9007199254740992
 C53_1 : 1 x0 + 8537949/16777216 x1 >= -8777892955684861/9007199254740992
 C53_2 : 1 x0 + 8537949/16777216 x1 <= -8777892938907651/9007199254740992
 C54_1 : 1 x0 + 533699/1048576 x1 >= -8776013437730813/9007199254740992
 C54_2 : 1 x0 + 533699/1048576 x1 <= -8776013420953603/9007199254740992
 C55_1 : 1 x0 + 8540419/16777216 x1 >= -8774134188212221/9007199254740992
 C55_2 : 1 x0 + 8540419/16777216 x1 <= -8774134171435011/9007199254740992
 C56_1 : 1 x0 + 4270827/8388608 x1 >= -1045734313/1073741824
 C56_2 : 1 x0 + 4270827/8388608 x1 <= -1045734311/1073741824
 C57_1 : 1 x0 + 8542889/16777216 x1 >= -1045510353/1073741824
 C57_2 : 1 x0 + 8542889/16777216 x1 <= -1045510351/1073741824
 C58_1 : 1 x0 + 2136031/4194304 x1 >= -8768498083823613/9007199254740992
 C58_2 : 1 x0 + 2136031/4194304 x1 <= -8768498067046403/9007199254740992
 C59_1 : 1 x0 + 8545359/16777216 x1 >= -1045062533/1073741824
 C59_2 : 1 x0 + 8545359/16777216 x1 <= -1045062531/1073741824
 C60_1 : 1 x0 + 4273297/8388608 x1 >= -8764742034259965/9007199254740992
 C60_2 : 1 x0 + 4273297/8388608 x1 <= -8764742017482755/9007199254740992
 C61_1 : 1 x0 + 8547829/16777216 x1 >= -8762864428908541/9007199254740992
 C61_2 : 1 x0 + 8547829/16777216 x1 <= -8762864412131331/9007199254740992
 C62_1 : 1 x0 + 1068633/2097152 x1 >= -1044391045/1073741824
 C62_2 : 1 x0 + 1068633/2097152 x1 <= -1044391043/1073741824
 C63_1 : 1 x0 + 8550299/16777216 x1 >= -1044167281/1073741824
 C63_2 : 1 x0 + 8550299/16777216 x1 <= -1044167279/1073741824
 C64_1 : 1 x0 + 4275767/8388608 x1 >= -1043943549/1073741824
 C64_2 : 1 x0 + 4275767/8388608 x1 <= -1043943547/1073741824
 C65_1 : 1 x0 + 8552769/16777216 x1 >= -1043719849/1073741824
 C65_2 : 1 x0 + 8552769/16777216 x1 <= -1043719847/1073741824
 C66_1 : 1 x0 + 2138501/4194304 x1 >= -1043496181/1073741824
 C66_2 : 1 x0 + 2138501/4194304 x1 <= -1043496179/1073741824
 C67_1 : 1 x0 + 8555239/16777216 x1 >= -1043272545/1073741824
 C67_2 : 1 x0 + 8555239/16777216 x1 <= -1043272543/1073741824
 C68_1 : 1 x0 + 4278237/8388608 x1 >= -8749728707641341/9007199254740992
 C68_2 : 1 x0 + 4278237/8388608 x1 <= -8749728690864131/9007199254740992
 C69_1 : 1 x0 + 8557709/16777216 x1 >= -8747853249773565/9007199254740992
 C69_2 : 1 x0 + 8557709/16777216 x1 <= -8747853232996355/9007199254740992
 C70_1 : 1 x0 + 267467/524288 x1 >= -1042601833/1073741824
 C70_2 : 1 x0 + 267467/524288 x1 <= -1042601831/1073741824
 C71_1 : 1 x0 + 8560179/16777216 x1 >= -8744103172898813/9007199254740992
 C71_2 : 1 x0 + 8560179/16777216 x1 <= -8744103156121603/9007199254740992
 C72_1 : 1 x0 + 4280707/8388608 x1 >= -1042154853/1073741824
 C72_2 : 1 x0 + 4280707/8388608 x1 <= -1042154851/1073741824
 C73_1 : 1 x0 + 8562649/16777216 x1 >= -8740354169765885/9007199254740992
 C73_2 : 1 x0 + 8562649/16777216 x1 <= -8740354152988675/9007199254740992
 C74_1 : 1 x0 + 2140971/4194304 x1 >= -1041708001/1073741824
 C74_2 : 1 x0 + 2140971/4194304 x1 <= -1041707999/1073741824
 C75_1 : 1 x0 + 8565119/16777216 x1 >= -8736606240374781/9007199254740992
 C75_2 : 1 x0 + 8565119/16777216 x1 <= -8736606223597571/9007199254740992
 C76_1 : 1 x0 + 4283177/8388608 x1 >= -8734732695109629/9007199254740992
 C76_2 : 1 x0 + 4283177/8388608 x1 <= -8734732678332419/9007199254740992
 C77_1 : 1 x0 + 8567589/16777216 x1 >= -1041037965/1073741824
 C77_2 : 1 x0 + 8567589/16777216 x1 <= -1041037963/1073741824
 C78_1 : 1 x0 + 1071103/2097152 x1 >= -1040814685/1073741824
 C78_2 : 1 x0 + 1071103/2097152 x1 <= -1040814683/1073741824
 C79_1 : 1 x0 + 8570059/16777216 x1 >= -8729113636372477/9007199254740992
 C79_2 : 1 x0 + 8570059/16777216 x1 <= -8729113619595267/9007199254740992
 C80_1 : 1 x0 + 4285647/8388608 x1 >= -8727241164849149/9007199254740992
 C80_2 : 1 x0 + 4285647/8388608 x1 <= -8727241148071939/9007199254740992
 C81_1 : 1 x0 + 8572529/16777216 x1 >= -520072517/536870912
 C81_2 : 1 x0 + 8572529/16777216 x1 <= -520072515/536870912
 C82_1 : 1 x0 + 2143441/4194304 x1 >= -519960941/536870912
 C82_2 : 1 x0 + 2143441/4194304 x1 <= -519960939/536870912
 C83_1 : 1 x0 + 8574999/16777216 x1 >= -519849381/536870912
 C83_2 : 1 x0 + 8574999/16777216 x1 <= -519849379/536870912
 C84_1 : 1 x0 + 4288117/8388608 x1 >= -519737837/536870912
 C84_2 : 1 x0 + 4288117/8388608 x1 <= -519737835/536870912
 C85_1 : 1 x0 + 8577469/16777216 x1 >= -8717882858930173/9007199254740992
 C85_2 : 1 x0 + 8577469/16777216 x1 <= -8717882825375747/9007199254740992
 C86_1 : 1 x0 + 536169/1048576 x1 >= -8716011998019581/9007199254740992
 C86_2 : 1 x0 + 536169/1048576 x1 <= -8716011964465155/9007199254740992
 C87_1 : 1 x0 + 8579939/16777216 x1 >= -8714141405544445/9007199254740992
 C87_2 : 1 x0 + 8579939/16777216 x1 <= -8714141371990019/9007199254740992
 C88_1 : 1 x0 + 4290587/8388608 x1 >= -8712271081504765/9007199254740992
 C88_2 : 1 x0 + 4290587/8388608 x1 <= -8712271047950339/9007199254740992
 C89_1 : 1 x0 + 8582409/16777216 x1 >= -8710401025900541/9007199254740992
 C89_2 : 1 x0 + 8582409/16777216 x1 <= -8710400992346115/9007199254740992
 C90_1 : 1 x0 + 2145911/4194304 x1 >= -8708531238731773/9007199254740992
 C90_2 : 1 x0 + 2145911/4194304 x1 <= -8708531205177347/9007199254740992
 C91_1 : 1 x0 + 8584879/16777216 x1 >= -8706661719998461/9007199254740992
 C91_2 : 1 x0 + 8584879/16777216 x1 <= -8706661686444035/9007199254740992
 C92_1 : 1 x0 + 4293057/8388608 x1 >= -518846065/536870912
 C92_2 : 1 x0 + 4293057/8388608 x1 <= -518846063/536870912
 C93_1 : 1 x0 + 8587349/16777216 x1 >= -518734665/536870912
 C93_2 : 1 x0 + 8587349/16777216 x1 <= -518734663/536870912
 C94_1 : 1 x0 + 1073573/2097152 x1 >= -518623281/536870912
 C94_2 : 1 x0 + 1073573/2097152 x1 <= -518623279/536870912
 C95_1 : 1 x0 + 8589819/16777216 x1 >= -518511913/536870912
 C95_2 : 1 x0 + 8589819/16777216 x1 <= -518511911/536870912
 C96_1 : 1 x0 + 4295527/8388608 x1 >= -8697318219972605/9007199254740992
 C96_2 : 1 x0 + 4295527/8388608 x1 <= -8697318186418179/9007199254740992
 C97_1 : 1 x0 + 8592289/16777216 x1 >= -8695450311852029/9007199254740992
 C97_2 : 1 x0 + 8592289/16777216 x1 <= -8695450278297603/9007199254740992
 C98_1 : 1 x0 + 2148381/4194304 x1 >= -8693582672166909/9007199254740992
 C98_2 : 1 x0 + 2148381/4194304 x1 <= -8693582638612483/9007199254740992
 C99_1 : 1 x0 + 8594759/16777216 x1 >= -8691715300917245/9007199254740992
 C99_2 : 1 x0 + 8594759/16777216 x1 <= -8691715267362819/9007199254740992
 C100_1 : 1 x0 + 4297997/8388608 x1 >= -8689848198103037/9007199254740992
 C100_2 : 1 x0 + 4297997/8388608 x1 <= -8689848164548611/9007199254740992
 C101_1 : 1 x0 + 8597229/16777216 x1 >= -517844045/536870912
 C101_2 : 1 x0 + 8597229/16777216 x1 <= -517844043/536870912
 C102_1 : 1 x0 + 134351/262144 x1 >= -517732789/536870912
 C102_2 : 1 x0 + 134351/262144 x1 <= -517732787/536870912
 C103_1 : 1 x0 + 8599699/16777216 x1 >= -517621549/536870912
 C103_2 : 1 x0 + 8599699/16777216 x1 <= -517621547/536870912
 C104_1 : 1 x0 + 4300467/8388608 x1 >= -517510325/536870912
 C104_2 : 1 x0 + 4300467/8388608 x1 <= -517510323/536870912
 C105_1 : 1 x0 + 8602169/16777216 x1 >= -8680516777672701/9007199254740992
 C105_2 : 1 x0 + 8602169/16777216 x1 <= -8680516744118275/9007199254740992
 C106_1 : 1 x0 + 2150851/4194304 x1 >= -8678651285471229/9007199254740992
 C106_2 : 1 x0 + 2150851/4194304 x1 <= -8678651251916803/9007199254740992
 C107_1 : 1 x0 + 8604639/16777216 x1 >= -8676786061705213/9007199254740992
 C107_2 : 1 x0 + 8604639/16777216 x1 <= -8676786028150787/9007199254740992
 C108_1 : 1 x0 + 4302937/8388608 x1 >= -8674921106374653/9007199254740992
 C108_2 : 1 x0 + 4302937/8388608 x1 <= -8674921072820227/9007199254740992
 C109_1 : 1 x0 + 8607109/16777216 x1 >= -8673056419479549/9007199254740992
 C109_2 : 1 x0 + 8607109/16777216 x1 <= -8673056385925123/9007199254740992
 C110_1 : 1 x0 + 1076043/2097152 x1 >= -8671192001019901/9007199254740992
 C110_2 : 1 x0 + 1076043/2097152 x1 <= -8671191967465475/9007199254740992
 C111_1 : 1 x0 + 8609579/16777216 x1 >= -8669327850995709/9007199254740992
 C111_2 : 1 x0 + 8609579/16777216 x1 <= -8669327817441283/9007199254740992
 C112_1 : 1 x0 + 4305407/8388608 x1 >= -8667463969406973/9007199254740992
 C112_2 : 1 x0 + 4305407/8388608 x1 <= -8667463935852547/9007199254740992
 C113_1 : 1 x0 + 8612049/16777216 x1 >= -8665600356253693/9007199254740992
 C113_2 : 1 x0 + 8612049/16777216 x1 <= -8665600322699267/9007199254740992
 C114_1 : 1 x0 + 2153321/4194304 x1 >= -8663737011535869/9007199254740992
 C114_2 : 1 x0 + 2153321/4194304 x1 <= -8663736977981443/9007199254740992
 C115_1 : 1 x0 + 8614519/16777216 x1 >= -8661873935253501/9007199254740992
 C115_2 : 1 x0 + 8614519/16777216 x1 <= -8661873901699075/9007199254740992
 C116_1 : 1 x0 + 4307877/8388608 x1 >= -8660011127406589/9007199254740992
 C116_2 : 1 x0 + 4307877/8388608 x1 <= -8660011093852163/9007199254740992
 C117_1 : 1 x0 + 8616989/16777216 x1 >= -8658148587995133/9007199254740992
 C117_2 : 1 x0 + 8616989/16777216 x1 <= -8658148554440707/9007199254740992
 C118_1 : 1 x0 + 538639/1048576 x1 >= -8656286317019133/9007199254740992
 C118_2 : 1 x0 + 538639/1048576 x1 <= -8656286283464707/9007199254740992
 C119_1 : 1 x0 + 8619459/16777216 x1 >= -515843885/536870912
 C119_2 : 1 x0 + 8619459/16777216 x1 <= -515843883/536870912
 C120_1 : 1 x0 + 4310347/8388608 x1 >= -515732917/536870912
 C120_2 : 1 x0 + 4310347/8388608 x1 <= -515732915/536870912
 C121_1 : 1 x0 + 8621929/16777216 x1 >= -515621965/536870912
 C121_2 : 1 x0 + 8621929/16777216 x1 <= -515621963/536870912
 C122_1 : 1 x0 + 2155791/4194304 x1 >= -8648839850360829/9007199254740992
 C122_2 : 1 x0 + 2155791/4194304 x1 <= -8648839816806403/9007199254740992
 C123_1 : 1 x0 + 8624399/16777216 x1 >= -8646978921562109/9007199254740992
 C123_2 : 1 x0 + 8624399/16777216 x1 <= -8646978888007683/9007199254740992
 C124_1 : 1 x0 + 4312817/8388608 x1 >= -515289201/536870912
 C124_2 : 1 x0 + 4312817/8388608 x1 <= -515289199/536870912
 C125_1 : 1 x0 + 8626869/16777216 x1 >= -515178313/536870912
 C125_2 : 1 x0 + 8626869/16777216 x1 <= -515178311/536870912
 C126_1 : 1 x0 + 1078513/2097152 x1 >= -8641397678669821/9007199254740992
 C126_2 : 1 x0 + 1078513/2097152 x1 <= -8641397645115395/9007199254740992
 C127_1 : 1 x0 + 8629339/16777216 x1 >= -514956581/536870912
 C127_2 : 1 x0 + 8629339/16777216 x1 <= -514956579/536870912
 C128_1 : 1 x0 + 4315287/8388608 x1 >= -8637678169882621/9007199254740992
 C128_2 : 1 x0 + 4315287/8388608 x1 <= -8637678136328195/9007199254740992
 C129_1 : 1 x0 + 8631809/16777216 x1 >= -514734913/536870912
 C129_2 : 1 x0 + 8631809/16777216 x1 <= -514734911/536870912
 C130_1 : 1 x0 + 2158261/4194304 x1 >= -514624105/536870912
 C130_2 : 1 x0 + 2158261/4194304 x1 <= -514624103/536870912
 C131_1 : 1 x0 + 8634279/16777216 x1 >= -8632100953522173/9007199254740992
 C131_2 : 1 x0 + 8634279/16777216 x1 <= -8632100919967747/9007199254740992
 C132_1 : 1 x0 + 4317757/8388608 x1 >= -8630242373533693/9007199254740992
 C132_2 : 1 x0 + 4317757/8388608 x1 <= -8630242339979267/9007199254740992
 C133_1 : 1 x0 + 8636749/16777216 x1 >= -514291769/536870912
 C133_2 : 1 x0 + 8636749/16777216 x1 <= -514291767/536870912
 C134_1 : 1 x0 + 269937/524288 x1 >= -8626526085971965/9007199254740992
 C134_2 : 1 x0 + 269937/524288 x1 <= -8626526052417539/9007199254740992
 C135_1 : 1 x0 + 8639219/16777216 x1 >= -514070293/536870912
 C135_2 : 1 x0 + 8639219/16777216 x1 <= -514070291/536870912
 C136_1 : 1 x0 + 4320227/8388608 x1 >= -513959577/536870912
 C136_2 : 1 x0 + 4320227/8388608 x1 <= -513959575/536870912
 C137_1 : 1 x0 + 8641689/16777216 x1 >= -8620953634340861/9007199254740992
 C137_2 : 1 x0 + 8641689/16777216 x1 <= -8620953600786435/9007199254740992
 C138_1 : 1 x0 + 2160731/4194304 x1 >= -8619096664965117/9007199254740992
 C138_2 : 1 x0 + 2160731/4194304 x1 <= -8619096631410691/9007199254740992
 C139_1 : 1 x0 + 8644159/16777216 x1 >= -8617239964024829/9007199254740992
 C139_2 : 1 x0 + 8644159/16777216 x1 <= -8617239930470403/9007199254740992
 C140_1 : 1 x0 + 4322697/8388608 x1 >= -513516877/536870912
 C140_2 : 1 x0 + 4322697/8388608 x1 <= -513516875/536870912
 C141_1 : 1 x0 + 8646629/16777216 x1 >= -513406241/536870912
 C141_2 : 1 x0 + 8646629/16777216 x1 <= -513406239/536870912
 C142_1 : 1 x0 + 1080983/2097152 x1 >= -513295621/536870912
 C142_2 : 1 x0 + 1080983/2097152 x1 <= -513295619/536870912
 C143_1 : 1 x0 + 8649099/16777216 x1 >= -513185017/536870912
 C143_2 : 1 x0 + 8649099/16777216 x1 <= -513185015/536870912
 C144_1 : 1 x0 + 4325167/8388608 x1 >= -8607960485855229/9007199254740992
 C144_2 : 1 x0 + 4325167/8388608 x1 <= -8607960452300803/9007199254740992
 C145_1 : 1 x0 + 8651569/16777216 x1 >= -8606105395527677/9007199254740992
 C145_2 : 1 x0 + 8651569/16777216 x1 <= -8606105361973251/9007199254740992
 C146_1 : 1 x0 + 2163201/4194304 x1 >= -8604250573635581/9007199254740992
 C146_2 : 1 x0 + 2163201/4194304 x1 <= -8604250540081155/9007199254740992
 C147_1 : 1 x0 + 8654039/16777216 x1 >= -512742757/536870912
 C147_2 : 1 x0 + 8654039/16777216 x1 <= -512742755/536870912
 C148_1 : 1 x0 + 4327637/8388608 x1 >= -512632233/536870912
 C148_2 : 1 x0 + 4327637/8388608 x1 <= -512632231/536870912
 C149_1 : 1 x0 + 8656509/16777216 x1 >= -8598687651463165/9007199254740992
 C149_2 : 1 x0 + 8656509/16777216 x1 <= -8598687617908739/9007199254740992
 C150_1 : 1 x0 + 541109/1048576 x1 >= -512411229/536870912
 C150_2 : 1 x0 + 541109/1048576 x1 <= -512411227/536870912
 C151_1 : 1 x0 + 8658979/16777216 x1 >= -8594980356489213/9007199254740992
 C151_2 : 1 x0 + 8658979/16777216 x1 <= -8594980322934787/9007199254740992
 C152_1 : 1 x0 + 4330107/8388608 x1 >= -512190289/536870912
 C152_2 : 1 x0 + 4330107/8388608 x1 <= -512190287/536870912
 C153_1 : 1 x0 + 8661449/16777216 x1 >= -8591274135257085/9007199254740992
 C153_2 : 1 x0 + 8661449/16777216 x1 <= -8591274101702659/9007199254740992
 C154_1 : 1 x0 + 2165671/4194304 x1 >= -8589421393739773/9007199254740992
 C154_2 : 1 x0 + 2165671/4194304 x1 <= -8589421360185347/9007199254740992
 C155_1 : 1 x0 + 8663919/16777216 x1 >= -511858997/536870912
 C155_2 : 1 x0 + 8663919/16777216 x1 <= -511858995/536870912
 C156_1 : 1 x0 + 4332577/8388608 x1 >= -511748597/536870912
 C156_2 : 1 x0 + 4332577/8388608 x1 <= -511748595/536870912
 C157_1 : 1 x0 + 8666389/16777216 x1 >= -8583864846909437/9007199254740992
 C157_2 : 1 x0 + 8666389/16777216 x1 <= -8583864813355011/9007199254740992
 C158_1 : 1 x0 + 1083453/2097152 x1 >= -8582013179133949/9007199254740992
 C158_2 : 1 x0 + 1083453/2097152 x1 <= -8582013145579523/9007199254740992
 C159_1 : 1 x0 + 8668859/16777216 x1 >= -8580161779793917/9007199254740992
 C159_2 : 1 x0 + 8668859/16777216 x1 <= -8580161746239491/9007199254740992
 C160_1 : 1 x0 + 4335047/8388608 x1 >= -511307157/536870912
 C160_2 : 1 x0 + 4335047/8388608 x1 <= -511307155/536870912
 C161_1 : 1 x0 + 8671329/16777216 x1 >= -511196837/536870912
 C161_2 : 1 x0 + 8671329/16777216 x1 <= -511196835/536870912
 C162_1 : 1 x0 + 2168141/4194304 x1 >= -511086533/536870912
 C162_2 : 1 x0 + 2168141/4194304 x1 <= -511086531/536870912
 C163_1 : 1 x0 + 8673799/16777216 x1 >= -8572758799679485/9007199254740992
 C163_2 : 1 x0 + 8673799/16777216 x1 <= -8572758766125059/9007199254740992
 C164_1 : 1 x0 + 4337517/8388608 x1 >= -510865969/536870912
 C164_2 : 1 x0 + 4337517/8388608 x1 <= -510865967/536870912
 C165_1 : 1 x0 + 8676269/16777216 x1 >= -8569058886680573/9007199254740992
 C165_2 : 1 x0 + 8676269/16777216 x1 <= -8569058853126147/9007199254740992
 C166_1 : 1 x0 + 67793/131072 x1 >= -510645469/536870912
 C166_2 : 1 x0 + 67793/131072 x1 <= -510645467/536870912
 C167_1 : 1 x0 + 8678739/16777216 x1 >= -8565360047423485/9007199254740992
 C167_2 : 1 x0 + 8678739/16777216 x1 <= -8565360013869059/9007199254740992
 C168_1 : 1 x0 + 4339987/8388608 x1 >= -510425033/536870912
 C168_2 : 1 x0 + 4339987/8388608 x1 <= -510425031/536870912
 C169_1 : 1 x0 + 8681209/16777216 x1 >= -510314837/536870912
 C169_2 : 1 x0 + 8681209/16777216 x1 <= -510314835/536870912
 C170_1 : 1 x0 + 2170611/4194304 x1 >= -8559813768249341/9007199254740992
 C170_2 : 1 x0 + 2170611/4194304 x1 <= -8559813734694915/9007199254740992
 C171_1 : 1 x0 + 8683679/16777216 x1 >= -8557965523025917/9007199254740992
 C171_2 : 1 x0 + 8683679/16777216 x1 <= -8557965489471491/9007199254740992
 C172_1 : 1 x0 + 4342457/8388608 x1 >= -8556117546237949/9007199254740992
 C172_2 : 1 x0 + 4342457/8388608 x1 <= -8556117512683523/9007199254740992
 C173_1 : 1 x0 + 8686149/16777216 x1 >= -8554269837885437/9007199254740992
 C173_2 : 1 x0 + 8686149/16777216 x1 <= -8554269804331011/9007199254740992
 C174_1 : 1 x0 + 1085923/2097152 x1 >= -509764097/536870912
 C174_2 : 1 x0 + 1085923/2097152 x1 <= -509764095/536870912
 C175_1 : 1 x0 + 8688619/16777216 x1 >= -509653997/536870912
 C175_2 : 1 x0 + 8688619/16777216 x1 <= -509653995/536870912
 C176_1 : 1 x0 + 4344927/8388608 x1 >= -8548728256331773/9007199254740992
 C176_2 : 1 x0 + 4344927/8388608 x1 <= -8548728222777347/9007199254740992
 C177_1 : 1 x0 + 8691089/16777216 x1 >= -509433841/536870912
 C177_2 : 1 x0 + 8691089/16777216 x1 <= -509433839/536870912
 C178_1 : 1 x0 + 2173081/4194304 x1 >= -8545035188436989/9007199254740992
 C178_2 : 1 x0 + 2173081/4194304 x1 <= -8545035154882563/9007199254740992
 C179_1 : 1 x0 + 8693559/16777216 x1 >= -509213749/536870912
 C179_2 : 1 x0 + 8693559/16777216 x1 <= -509213747/536870912
 C180_1 : 1 x0 + 4347397/8388608 x1 >= -509103725/536870912
 C180_2 : 1 x0 + 4347397/8388608 x1 <= -509103723/536870912
 C181_1 : 1 x0 + 8696029/16777216 x1 >= -8539497566306301/9007199254740992
 C181_2 : 1 x0 + 8696029/16777216 x1 <= -8539497532751875/9007199254740992
 C182_1 : 1 x0 + 543579/1048576 x1 >= -8537652206764029/9007199254740992
 C182_2 : 1 x0 + 543579/1048576 x1 <= -8537652173209603/9007199254740992
 C183_1 : 1 x0 + 8698499/16777216 x1 >= -8535807115657213/9007199254740992
 C183_2 : 1 x0 + 8698499/16777216 x1 <= -8535807082102787/9007199254740992
 C184_1 : 1 x0 + 4349867/8388608 x1 >= -8533962292985853/9007199254740992
 C184_2 : 1 x0 + 4349867/8388608 x1 <= -8533962259431427/9007199254740992
 C185_1 : 1 x0 + 8700969/16777216 x1 >= -508553845/536870912
 C185_2 : 1 x0 + 8700969/16777216 x1 <= -508553843/536870912
 C186_1 : 1 x0 + 2175551/4194304 x1 >= -508443917/536870912
 C186_2 : 1 x0 + 2175551/4194304 x1 <= -508443915/536870912
 C187_1 : 1 x0 + 8703439/16777216 x1 >= -8528429368475645/9007199254740992
 C187_2 : 1 x0 + 8703439/16777216 x1 <= -8528429334921219/9007199254740992
 C188_1 : 1 x0 + 4352337/8388608 x1 >= -508224105/536870912
 C188_2 : 1 x0 + 4352337/8388608 x1 <= -508224103/536870912
 C189_1 : 1 x0 + 8705909/16777216 x1 >= -8524742071943165/9007199254740992
 C189_2 : 1 x0 + 8705909/16777216 x1 <= -8524742038388739/9007199254740992
 C190_1 : 1 x0 + 1088393/2097152 x1 >= -508004357/536870912
 C190_2 : 1 x0 + 1088393/2097152 x1 <= -508004355/536870912
 C191_1 : 1 x0 + 8708379/16777216 x1 >= -507894505/536870912
 C191_2 : 1 x0 + 8708379/16777216 x1 <= -507894503/536870912
 C192_1 : 1 x0 + 4354807/8388608 x1 >= -507784669/536870912
 C192_2 : 1 x0 + 4354807/8388608 x1 <= -507784667/536870912
 C193_1 : 1 x0 + 8710849/16777216 x1 >= -507674849/536870912
 C193_2 : 1 x0 + 8710849/16777216 x1 <= -507674847/536870912
 C194_1 : 1 x0 + 2178021/4194304 x1 >= -507565045/536870912
 C194_2 : 1 x0 + 2178021/4194304 x1 <= -507565043/536870912
 C195_1 : 1 x0 + 8713319/16777216 x1 >= -8513686423470077/9007199254740992
 C195_2 : 1 x0 + 8713319/16777216 x1 <= -8513686389915651/9007199254740992
 C196_1 : 1 x0 + 4357277/8388608 x1 >= -8511844754915325/9007199254740992
 C196_2 : 1 x0 + 4357277/8388608 x1 <= -8511844721360899/9007199254740992
 C197_1 : 1 x0 + 8715789/16777216 x1 >= -507235725/536870912
 C197_2 : 1 x0 + 8715789/16777216 x1 <= -507235723/536870912
 C198_1 : 1 x0 + 272407/524288 x1 >= -8508162156003325/9007199254740992
 C198_2 : 1 x0 + 272407/524288 x1 <= -8508162122448899/9007199254740992
 C199_1 : 1 x0 + 8718259/16777216 x1 >= -8506321225646077/9007199254740992
 C199_2 : 1 x0 + 8718259/16777216 x1 <= -8506321192091651/9007199254740992
 C200_1 : 1 x0 + 4359747/8388608 x1 >= -506906545/536870912
 C200_2 : 1 x0 + 4359747/8388608 x1 <= -506906543/536870912
 C201_1 : 1 x0 + 8720729/16777216 x1 >= -506796849/536870912
 C201_2 : 1 x0 + 8720729/16777216 x1 <= -506796847/536870912
 C202_1 : 1 x0 + 2180491/4194304 x1 >= -506687169/536870912
 C202_2 : 1 x0 + 2180491/4194304 x1 <= -506687167/536870912
 C203_1 : 1 x0 + 8723199/16777216 x1 >= -506577505/536870912
 C203_2 : 1 x0 + 8723199/16777216 x1 <= -506577503/536870912
 C204_1 : 1 x0 + 529531/1048576 x1 >= -2116655189/2147483648
 C204_2 : 1 x0 + 529531/1048576 x1 <= -2116655187/2147483648
 C205_1 : 1 x0 + 529531/1048576 x1 >= -2116655189/2147483648
 C205_2 : 1 x0 + 529531/1048576 x1 <= -2116655187/2147483648
 C206_1 : 1 x0 + 529531/1048576 x1 >= -2116655189/2147483648
 C206_2 : 1 x0 + 529531/1048576 x1 <= -2116655187/2147483648
 C207_1 : 1 x0 + 529531/1048576 x1 >= -2116655189/2147483648
 C207_2 : 1 x0 + 529531/1048576 x1 <= -2116655187/2147483648
 C208_1 : 1 x0 + 529531/1048576 x1 >= -2116655189/2147483648
 C208_2 : 1 x0 + 529531/1048576 x1 <= -2116655187/2147483648
 C209_1 : 1 x0 + 529531/1048576 x1 >= -2116655189/2147483648
 C209_2 : 1 x0 + 529531/1048576 x1 <= -2116655187/2147483648
 C210_1 : 1 x0 + 529531/1048576 x1 >= -2116655189/2147483648
 C210_2 : 1 x0 + 529531/1048576 x1 <= -2116655187/2147483648
 C211_1 : 1 x0 + 529531/1048576 x1 >= -2116655189/2147483648
 C211_2 : 1 x0 + 529531/1048576 x1 <= -2116655187/2147483648
 C212_1 : 1 x0 + 529531/1048576 x1 >= -2116655189/2147483648
 C212_2 : 1 x0 + 529531/1048576 x1 <= -2116655187/2147483648
 C213_1 : 1 x0 + 529531/1048576 x1 >= -2116655189/2147483648
 C213_2 : 1 x0 + 529531/1048576 x1 <= -2116655187/2147483648
 C214_1 : 1 x0 + 529531/1048576 x1 >= -2116655189/2147483648
 C214_2 : 1 x0 + 529531/1048576 x1 <= -2116655187/2147483648
 C215_1 : 1 x0 + 529531/1048576 x1 >= -2116655189/2147483648
 C215_2 : 1 x0 + 529531/1048576 x1 <= -2116655187/2147483648
 C216_1 : 1 x0 + 529531/1048576 x1 >= -2116655189/2147483648
 C216_2 : 1 x0 + 529531/1048576 x1 <= -2116655187/2147483648
 C217_1 : 1 x0 + 529531/1048576 x1 >= -2116655189/2147483648
 C217_2 : 1 x0 + 529531/1048576 x1 <= -2116655187/2147483648
 C218_1 : 1 x0 + 529531/1048576 x1 >= -2116655189/2147483648
 C218_2 : 1 x0 + 529531/1048576 x1 <= -2116655187/2147483648
 C219_1 : 1 x0 + 529531/1048576 x1 >= -2116655189/2147483648
 C219_2 : 1 x0 + 529531/1048576 x1 <= -2116655187/2147483648
 C220_1 : 1 x0 + 529531/1048576 x1 >= -2116655189/2147483648
 C220_2 : 1 x0 + 529531/1048576 x1 <= -2116655187/2147483648
 C221_1 : 1 x0 + 529531/1048576 x1 >= -2116655189/2147483648
 C221_2 : 1 x0 + 529531/1048576 x1 <= -2116655187/2147483648
 C222_1 : 1 x0 + 529531/1048576 x1 >= -2116655189/2147483648
 C222_2 : 1 x0 + 529531/1048576 x1 <= -2116655187/2147483648
 C223_1 : 1 x0 + 529531/1048576 x1 >= -2116655189/2147483648
 C223_2 : 1 x0 + 529531/1048576 x1 <= -2116655187/2147483648
 C224_1 : 1 x0 + 529531/1048576 x1 >= -2116655189/2147483648
 C224_2 : 1 x0 + 529531/1048576 x1 <= -2116655187/2147483648
 C225_1 : 1 x0 + 529531/1048576 x1 >= -2116655189/2147483648
 C225_2 : 1 x0 + 529531/1048576 x1 <= -2116655187/2147483648
 C226_1 : 1 x0 + 529531/1048576 x1 >= -2116655189/2147483648
 C226_2 : 1 x0 + 529531/1048576 x1 <= -2116655187/2147483648
 C227_1 : 1 x0 + 529531/1048576 x1 >= -2116655189/2147483648
 C227_2 : 1 x0 + 529531/1048576 x1 <= -2116655187/2147483648
 C228_1 : 1 x0 + 529531/1048576 x1 >= -2116655189/2147483648
 C228_2 : 1 x0 + 529531/1048576 x1 <= -2116655187/2147483648
 C229_1 : 1 x0 + 529531/1048576 x1 >= -2116655189/2147483648
 C229_2 : 1 x0 + 529531/1048576 x1 <= -2116655187/2147483648
 C230_1 : 1 x0 + 529531/1048576 x1 >= -2116655189/2147483648
 C230_2 : 1 x0 + 529531/1048576 x1 <= -2116655187/2147483648
 C231_1 : 1 x0 + 529531/1048576 x1 >= -2116655189/2147483648
 C231_2 : 1 x0 + 529531/1048576 x1 <= -2116655187/2147483648
 C232_1 : 1 x0 + 529531/1048576 x1 >= -2116655189/2147483648
 C232_2 : 1 x0 + 529531/1048576 x1 <= -2116655187/2147483648
 C233_1 : 1 x0 + 529531/1048576 x1 >= -2116655189/2147483648
 C233_2 : 1 x0 + 529531/1048576 x1 <= -2116655187/2147483648
 C234_1 : 1 x0 + 529531/1048576 x1 >= -2116655189/2147483648
 C234_2 : 1 x0 + 529531/1048576 x1 <= -2116655187/2147483648
 C235_1 : 1 x0 + 529531/1048576 x1 >= -2116655189/2147483648
 C235_2 : 1 x0 + 529531/1048576 x1 <= -2116655187/2147483648
 C236_1 : 1 x0 + 529531/1048576 x1 >= -2116655189/2147483648
 C236_2 : 1 x0 + 529531/1048576 x1 <= -2116655187/2147483648
 C237_1 : 1 x0 + 529531/1048576 x1 >= -2116655189/2147483648
 C237_2 : 1 x0 + 529531/1048576 x1 <= -2116655187/2147483648
 C238_1 : 1 x0 + 529531/1048576 x1 >= -2116655189/2147483648
 C238_2 : 1 x0 + 529531/1048576 x1 <= -2116655187/2147483648
 C239_1 : 1 x0 + 529531/1048576 x1 >= -2116655189/2147483648
 C239_2 : 1 x0 + 529531/1048576 x1 <= -2116655187/2147483648
 C240_1 : 1 x0 + 529531/1048576 x1 >= -2116655189/2147483648
 C240_2 : 1 x0 + 529531/1048576 x1 <= -2116655187/2147483648
 C241_1 : 1 x0 + 529531/1048576 x1 >= -2116655189/2147483648
 C241_2 : 1 x0 + 529531/1048576 x1 <= -2116655187/2147483648
 C242_1 : 1 x0 + 529531/1048576 x1 >= -2116655189/2147483648
 C242_2 : 1 x0 + 529531/1048576 x1 <= -2116655187/2147483648
 C243_1 : 1 x0 + 529531/1048576 x1 >= -2116655189/2147483648
 C243_2 : 1 x0 + 529531/1048576 x1 <= -2116655187/2147483648
 C244_1 : 1 x0 + 529531/1048576 x1 >= -2116655189/2147483648
 C244_2 : 1 x0 + 529531/1048576 x1 <= -2116655187/2147483648
 C245_1 : 1 x0 + 529531/1048576 x1 >= -2116655189/2147483648
 C245_2 : 1 x0 + 529531/1048576 x1 <= -2116655187/2147483648
 C246_1 : 1 x0 + 529531/1048576 x1 >= -2116655189/2147483648
 C246_2 : 1 x0 + 529531/1048576 x1 <= -2116655187/2147483648
 C247_1 : 1 x0 + 529531/1048576 x1 >= -2116655189/2147483648
 C247_2 : 1 x0 + 529531/1048576 x1 <= -2116655187/2147483648
 C248_1 : 1 x0 + 529531/1048576 x1 >= -2116655189/2147483648
 C248_2 : 1 x0 + 529531/1048576 x1 <= -2116655187/2147483648
 C249_1 : 1 x0 + 529531/1048576 x1 >= -2116655189/2147483648
 C249_2 : 1 x0 + 529531/1048576 x1 <= -2116655187/2147483648
 C250_1 : 1 x0 + 529531/1048576 x1 >= -2116655189/2147483648
 C250_2 : 1 x0 + 529531/1048576 x1 <= -2116655187/2147483648
 C251_1 : 1 x0 + 529531/1048576 x1 >= -2116655189/2147483648
 C251_2 : 1 x0 + 529531/1048576 x1 <= -2116655187/2147483648
 C252_1 : 1 x0 + 529531/1048576 x1 >= -2116655189/2147483648
 C252_2 : 1 x0 + 529531/1048576 x1 <= -2116655187/2147483648
 C253_1 : 1 x0 + 529531/1048576 x1 >= -2116655189/2147483648
 C253_2 : 1 x0 + 529531/1048576 x1 <= -2116655187/2147483648
Bounds
  x0 free
  x1 free
End
